15 4 
5670	5670	5670	5670	
894	550	580	
587	348	567	
506	760	1330	
129	722	1054	
963	230	442	
735	294	379	
147	134	175	
757	742	1267	
435	397	452	
795	71	130	
714	785	1019	
792	351	400	
154	617	795	
605	934	1287	
273	626	1082	
